unsat
(:added-eqs                   3777
 :arith-eq-adapter            64
 :arith-bound-propagations-lp 982
 :arith-branch                978
 :arith-conflicts             1177
 :arith-cube-calls            461
 :arith-diseq                 1663
 :arith-fixed-eqs             1370
 :arith-gcd-calls             1876
 :arith-gcd-conflict          32
 :arith-gomory-cuts           1384
 :arith-hnf-calls             9
 :arith-lower                 21271
 :arith-make-feasible         11363
 :arith-max-columns           101
 :arith-max-rows              56
 :arith-nla-propagate-bounds  4
 :arith-offset-eqs            383
 :arith-patches               1844
 :arith-patches-success       4
 :arith-upper                 22996
 :binary-propagations         29553
 :conflicts                   1185
 :decisions                   6429
 :del-clause                  1996
 :final-checks                1876
 :max-memory                  52.71
 :memory                      17.68
 :minimized-lits              139
 :mk-bool-var                 2734
 :mk-clause                   2023
 :mk-clause-binary            1898
 :num-allocs                  382596354
 :num-checks                  1
 :propagations                37785
 :restarts                    10
 :rlimit-count                494820
 :sls-bv-lookaheads           2029248
 :sls-bv-moves                29701
 :sls-bv-restarts             34
 :sls-ddfw-flips              40345.00
 :sls-ddfw-reinits            3
 :sls-ddfw-restarts           182
 :sls-ddfw-shifts             7.00
 :sls-num-guided-search       6
 :sls-repair-down             127080
 :sls-repair-up               138735
 :time                        4.09
 :total-time                  4.09)
